%As
as_len = 10;
as = array2d(1..as_len,1..2,[
86,16,
106,329,
180,232,
97,409,
412,332,
168,256,
285,200,
380,370,
425,153,
217,186,
]);
% Makespan
makespan = 34;
% Rel:
rel_len = 461;
rel = [
{1,2,24}, %	1
{2,3,1,25}, %	2
{3,4,2}, %	3
{4,5,3}, %	4
{5,6,4,26}, %	5
{6,7,5,27}, %	6
{7,8,6,28}, %	7
{8,9,7,29}, %	8
{9,10,8,30}, %	9
{10,11,9,31}, %	10
{11,12,10}, %	11
{12,11}, %	12
{13,14,33}, %	13
{14,15,13,34}, %	14
{15,16,14,35}, %	15
{16,17,15,36}, %	16
{17,18,16,37}, %	17
{18,19,17,38}, %	18
{19,20,18,39}, %	19
{20,21,19,40}, %	20
{21,22,20,41}, %	21
{22,23,21,42}, %	22
{23,22}, %	23
{24,25,1,43}, %	24
{25,24,2,44}, %	25
{26,27,5,47}, %	26
{27,28,26,6}, %	27
{28,29,27,7,48}, %	28
{29,30,28,8,49}, %	29
{30,31,29,9,50}, %	30
{31,30,10,51}, %	31
{32,33,53}, %	32
{33,34,32,13,54}, %	33
{34,35,33,14,55}, %	34
{35,36,34,15}, %	35
{36,37,35,16,56}, %	36
{37,38,36,17,57}, %	37
{38,39,37,18,58}, %	38
{39,40,38,19,59}, %	39
{40,41,39,20}, %	40
{41,42,40,21,60}, %	41
{42,41,22,61}, %	42
{43,44,24,63}, %	43
{44,45,43,25,64}, %	44
{45,46,44,65}, %	45
{46,47,45}, %	46
{47,46,26,66}, %	47
{48,49,28,67}, %	48
{49,50,48,29,68}, %	49
{50,51,49,30,69}, %	50
{51,52,50,31,70}, %	51
{52,51,71}, %	52
{53,54,32,73}, %	53
{54,55,53,33,74}, %	54
{55,54,34}, %	55
{56,57,36,76}, %	56
{57,58,56,37,77}, %	57
{58,59,57,38,78}, %	58
{59,58,39,79}, %	59
{60,61,41}, %	60
{61,62,60,42,81}, %	61
{62,61,82}, %	62
{63,64,43,83}, %	63
{64,65,63,44,84}, %	64
{65,64,45,85}, %	65
{66,47,87}, %	66
{67,68,48,89}, %	67
{68,69,67,49,90}, %	68
{69,70,68,50,91}, %	69
{70,71,69,51,92}, %	70
{71,72,70,52,93}, %	71
{72,73,71,94}, %	72
{73,74,72,53,95}, %	73
{74,73,54,96}, %	74
{75,76,98}, %	75
{76,77,75,56,99}, %	76
{77,78,76,57,100}, %	77
{78,79,77,58,101}, %	78
{79,80,78,59,102}, %	79
{80,79}, %	80
{81,82,61}, %	81
{82,81,62,104}, %	82
{83,84,63,105}, %	83
{84,85,83,64}, %	84
{85,86,84,65}, %	85
{86,87,85,106}, %	86
{87,88,86,66,107}, %	87
{88,89,87,108}, %	88
{89,90,88,67,109}, %	89
{90,91,89,68,110}, %	90
{91,92,90,69,111}, %	91
{92,93,91,70}, %	92
{93,94,92,71}, %	93
{94,95,93,72,112}, %	94
{95,96,94,73}, %	95
{96,97,95,74,113}, %	96
{97,98,96,114}, %	97
{98,99,97,75,115}, %	98
{99,100,98,76}, %	99
{100,101,99,77,116}, %	100
{101,102,100,78,117}, %	101
{102,101,79,118}, %	102
{103}, %	103
{104,82,121}, %	104
{105,83,122}, %	105
{106,107,86,123}, %	106
{107,108,106,87}, %	107
{108,109,107,88}, %	108
{109,110,108,89}, %	109
{110,111,109,90}, %	110
{111,110,91}, %	111
{112,94,126}, %	112
{113,114,96,128}, %	113
{114,115,113,97,129}, %	114
{115,114,98}, %	115
{116,117,100,131}, %	116
{117,118,116,101,132}, %	117
{118,119,117,102,133}, %	118
{119,118,134}, %	119
{120,121,136}, %	120
{121,120,104,137}, %	121
{122,105,138}, %	122
{123,106,140}, %	123
{124,125,145}, %	124
{125,126,124}, %	125
{126,127,125,112,146}, %	126
{127,128,126,147}, %	127
{128,129,127,113,148}, %	128
{129,128,114,149}, %	129
{130,131,150}, %	130
{131,132,130,116,151}, %	131
{132,133,131,117,152}, %	132
{133,134,132,118,153}, %	133
{134,135,133,119}, %	134
{135,136,134}, %	135
{136,137,135,120,154}, %	136
{137,136,121,155}, %	137
{138,122,156}, %	138
{139,140,158}, %	139
{140,139,123,159}, %	140
{141,142,161}, %	141
{142,143,141,162}, %	142
{143,144,142,163}, %	143
{144,145,143,164}, %	144
{145,144,124}, %	145
{146,147,126}, %	146
{147,148,146,127,166}, %	147
{148,149,147,128,167}, %	148
{149,148,129,168}, %	149
{150,151,130,170}, %	150
{151,152,150,131,171}, %	151
{152,153,151,132,172}, %	152
{153,152,133,173}, %	153
{154,155,136,175}, %	154
{155,154,137,176}, %	155
{156,157,138,177}, %	156
{157,158,156,178}, %	157
{158,159,157,139,179}, %	158
{159,160,158,140,180}, %	159
{160,161,159,181}, %	160
{161,162,160,141,182}, %	161
{162,163,161,142,183}, %	162
{163,164,162,143}, %	163
{164,163,144,184}, %	164
{165,186}, %	165
{166,167,147}, %	166
{167,168,166,148,188}, %	167
{168,169,167,149}, %	168
{169,170,168,189}, %	169
{170,171,169,150,190}, %	170
{171,172,170,151,191}, %	171
{172,173,171,152,192}, %	172
{173,172,153,193}, %	173
{174,175,195}, %	174
{175,176,174,154}, %	175
{176,175,155,196}, %	176
{177,178,156,197}, %	177
{178,179,177,157,198}, %	178
{179,180,178,158,199}, %	179
{180,181,179,159,200}, %	180
{181,182,180,160,201}, %	181
{182,183,181,161,202}, %	182
{183,182,162,203}, %	183
{184,185,164,205}, %	184
{185,186,184,206}, %	185
{186,187,185,165,207}, %	186
{187,186,208}, %	187
{188,167,210}, %	188
{189,190,169,212}, %	189
{190,191,189,170,213}, %	190
{191,192,190,171,214}, %	191
{192,193,191,172,215}, %	192
{193,194,192,173}, %	193
{194,195,193,216}, %	194
{195,194,174,217}, %	195
{196,176,219}, %	196
{197,198,177}, %	197
{198,199,197,178,220}, %	198
{199,200,198,179,221}, %	199
{200,201,199,180}, %	200
{201,202,200,181}, %	201
{202,203,201,182,222}, %	202
{203,204,202,183,223}, %	203
{204,205,203,224}, %	204
{205,206,204,184,225}, %	205
{206,207,205,185,226}, %	206
{207,208,206,186,227}, %	207
{208,209,207,187,228}, %	208
{209,210,208,229}, %	209
{210,211,209,188,230}, %	210
{211,212,210,231}, %	211
{212,213,211,189,232}, %	212
{213,214,212,190,233}, %	213
{214,215,213,191,234}, %	214
{215,214,192,235}, %	215
{216,217,194,236}, %	216
{217,218,216,195}, %	217
{218,219,217,237}, %	218
{219,218,196,238}, %	219
{220,221,198,240}, %	220
{221,220,199,241}, %	221
{222,223,202,243}, %	222
{223,224,222,203,244}, %	223
{224,225,223,204,245}, %	224
{225,226,224,205}, %	225
{226,227,225,206,246}, %	226
{227,228,226,207,247}, %	227
{228,229,227,208,248}, %	228
{229,230,228,209,249}, %	229
{230,231,229,210,250}, %	230
{231,232,230,211,251}, %	231
{232,233,231,212}, %	232
{233,234,232,213,252}, %	233
{234,235,233,214,253}, %	234
{235,234,215}, %	235
{236,216,255}, %	236
{237,238,218,257}, %	237
{238,237,219,258}, %	238
{239,240,259}, %	239
{240,241,239,220,260}, %	240
{241,242,240,221}, %	241
{242,241,261}, %	242
{243,244,222,263}, %	243
{244,245,243,223,264}, %	244
{245,244,224,265}, %	245
{246,247,226}, %	246
{247,248,246,227,267}, %	247
{248,249,247,228}, %	248
{249,250,248,229,268}, %	249
{250,251,249,230,269}, %	250
{251,250,231}, %	251
{252,253,233,271}, %	252
{253,252,234,272}, %	253
{254,255,274}, %	254
{255,256,254,236,275}, %	255
{256,257,255,276}, %	256
{257,258,256,237}, %	257
{258,257,238,277}, %	258
{259,260,239,278}, %	259
{260,259,240,279}, %	260
{261,262,242,281}, %	261
{262,263,261,282}, %	262
{263,264,262,243,283}, %	263
{264,265,263,244}, %	264
{265,266,264,245,284}, %	265
{266,265,285}, %	266
{267,247,287}, %	267
{268,269,249,289}, %	268
{269,268,250,290}, %	269
{270,271,291}, %	270
{271,272,270,252,292}, %	271
{272,273,271,253}, %	272
{273,274,272,293}, %	273
{274,275,273,254}, %	274
{275,276,274,255}, %	275
{276,275,256,294}, %	276
{277,258,296}, %	277
{278,279,259}, %	278
{279,280,278,260,297}, %	279
{280,281,279}, %	280
{281,282,280,261}, %	281
{282,283,281,262,298}, %	282
{283,282,263,299}, %	283
{284,285,265,301}, %	284
{285,286,284,266,302}, %	285
{286,287,285,303}, %	286
{287,288,286,267,304}, %	287
{288,289,287,305}, %	288
{289,290,288,268,306}, %	289
{290,289,269}, %	290
{291,292,270,308}, %	291
{292,291,271}, %	292
{293,273}, %	293
{294,295,276,312}, %	294
{295,296,294}, %	295
{296,295,277,313}, %	296
{297,279,314}, %	297
{298,299,282}, %	298
{299,300,298,283,316}, %	299
{300,301,299,317}, %	300
{301,302,300,284,318}, %	301
{302,303,301,285,319}, %	302
{303,304,302,286,320}, %	303
{304,305,303,287,321}, %	304
{305,306,304,288,322}, %	305
{306,305,289,323}, %	306
{307,308,325}, %	307
{308,307,291,326}, %	308
{309,328}, %	309
{310,311,330}, %	310
{311,312,310,331}, %	311
{312,311,294}, %	312
{313,296}, %	313
{314,315,297,334}, %	314
{315,314}, %	315
{316,317,299,337}, %	316
{317,318,316,300,338}, %	317
{318,319,317,301}, %	318
{319,320,318,302,339}, %	319
{320,321,319,303,340}, %	320
{321,322,320,304,341}, %	321
{322,323,321,305}, %	322
{323,324,322,306,342}, %	323
{324,325,323,343}, %	324
{325,326,324,307}, %	325
{326,327,325,308,344}, %	326
{327,328,326,345}, %	327
{328,329,327,309,346}, %	328
{329,330,328,347}, %	329
{330,331,329,310,348}, %	330
{331,330,311}, %	331
{332,350}, %	332
{333,334,351}, %	333
{334,333,314,352}, %	334
{335,336,353}, %	335
{336,337,335}, %	336
{337,338,336,316,354}, %	337
{338,337,317}, %	338
{339,340,319,356}, %	339
{340,341,339,320,357}, %	340
{341,340,321,358}, %	341
{342,343,323,360}, %	342
{343,342,324,361}, %	343
{344,345,326}, %	344
{345,346,344,327,363}, %	345
{346,347,345,328}, %	346
{347,348,346,329,364}, %	347
{348,347,330,365}, %	348
{349,350}, %	349
{350,349,332,367}, %	350
{351,352,333}, %	351
{352,351,334,369}, %	352
{353,335,370}, %	353
{354,337}, %	354
{355,356,372}, %	355
{356,357,355,339,373}, %	356
{357,358,356,340}, %	357
{358,359,357,341,374}, %	358
{359,360,358,375}, %	359
{360,361,359,342}, %	360
{361,362,360,343,376}, %	361
{362,361,377}, %	362
{363,345,378}, %	363
{364,365,347,380}, %	364
{365,366,364,348}, %	365
{366,365,381}, %	366
{367,368,350,383}, %	367
{368,367,384}, %	368
{369,352,386}, %	369
{370,371,353}, %	370
{371,370,388}, %	371
{372,373,355,390}, %	372
{373,372,356,391}, %	373
{374,375,358,393}, %	374
{375,374,359}, %	375
{376,377,361,395}, %	376
{377,376,362,396}, %	377
{378,379,363,397}, %	378
{379,380,378,398}, %	379
{380,379,364}, %	380
{381,382,366,399}, %	381
{382,383,381,400}, %	382
{383,384,382,367,401}, %	383
{384,383,368,402}, %	384
{385,386,403}, %	385
{386,387,385,369,404}, %	386
{387,386,405}, %	387
{388,389,371,407}, %	388
{389,388}, %	389
{390,391,372}, %	390
{391,392,390,373,409}, %	391
{392,393,391,410}, %	392
{393,392,374,411}, %	393
{394,395,413}, %	394
{395,396,394,376,414}, %	395
{396,395,377}, %	396
{397,398,378,416}, %	397
{398,397,379,417}, %	398
{399,400,381,420}, %	399
{400,401,399,382,421}, %	400
{401,402,400,383,422}, %	401
{402,401,384,423}, %	402
{403,404,385}, %	403
{404,405,403,386}, %	404
{405,406,404,387,424}, %	405
{406,407,405}, %	406
{407,406,388,425}, %	407
{408,427}, %	408
{409,410,391,429}, %	409
{410,411,409,392,430}, %	410
{411,412,410,393,431}, %	411
{412,413,411,432}, %	412
{413,414,412,394,433}, %	413
{414,413,395,434}, %	414
{415,416,436}, %	415
{416,417,415,397,437}, %	416
{417,418,416,398}, %	417
{418,419,417,438}, %	418
{419,420,418,439}, %	419
{420,421,419,399,440}, %	420
{421,422,420,400,441}, %	421
{422,423,421,401,442}, %	422
{423,422,402,443}, %	423
{424,405,445}, %	424
{425,426,407,447}, %	425
{426,427,425,448}, %	426
{427,428,426,408,449}, %	427
{428,429,427,450}, %	428
{429,430,428,409}, %	429
{430,431,429,410,451}, %	430
{431,432,430,411,452}, %	431
{432,433,431,412}, %	432
{433,434,432,413}, %	433
{434,435,433,414,453}, %	434
{435,436,434,454}, %	435
{436,437,435,415,455}, %	436
{437,436,416,456}, %	437
{438,439,418}, %	438
{439,440,438,419,458}, %	439
{440,441,439,420}, %	440
{441,442,440,421,459}, %	441
{442,443,441,422,460}, %	442
{443,442,423,461}, %	443
{444,445}, %	444
{445,446,444,424}, %	445
{446,447,445}, %	446
{447,448,446,425}, %	447
{448,449,447,426}, %	448
{449,450,448,427}, %	449
{450,449,428}, %	450
{451,452,430}, %	451
{452,451,431}, %	452
{453,454,434}, %	453
{454,455,453,435}, %	454
{455,456,454,436}, %	455
{456,457,455,437}, %	456
{457,456}, %	457
{458,439}, %	458
{459,460,441}, %	459
{460,461,459,442}, %	460
{461,460,443}, %	461
];
k=10;
